(set-info :min-time 7.711415857)
; Start decls (13)
(declare-fun b10 () (_ FloatingPoint 8 24))
(declare-fun b11 () (_ FloatingPoint 8 24))
(declare-fun b14 () (_ FloatingPoint 8 24))
(declare-fun b17 () (_ FloatingPoint 8 24))
(declare-fun b20 () (_ FloatingPoint 8 24))
(declare-fun b23 () (_ FloatingPoint 8 24))
(declare-fun b26 () (_ FloatingPoint 8 24))
(declare-fun b29 () (_ FloatingPoint 8 24))
(declare-fun b32 () (_ FloatingPoint 8 24))
(declare-fun b35 () (_ FloatingPoint 8 24))
(declare-fun b38 () (_ FloatingPoint 8 24))
(declare-fun b41 () (_ FloatingPoint 8 24))
(declare-fun b70 () (_ FloatingPoint 8 24))
; End decls
; Start constraints (21)
(assert (fp.lt b11 b41))
(assert (let ((a!1 (fp.div roundNearestTiesToEven
                   (fp.div roundNearestTiesToEven
                           (fp.div roundNearestTiesToEven
                                   (fp.div roundNearestTiesToEven b10 b11)
                                   b14)
                           b17)
                   b20)))
(let ((a!2 (fp.div roundNearestTiesToEven
                   (fp.div roundNearestTiesToEven
                           (fp.div roundNearestTiesToEven
                                   (fp.div roundNearestTiesToEven a!1 b23)
                                   b26)
                           b29)
                   b32)))
  (fp.lt (fp.div roundNearestTiesToEven
                 (fp.div roundNearestTiesToEven a!2 b35)
                 b38)
         b41))))
(assert (fp.lt b70 b11))
(assert (fp.lt b14 b41))
(assert (fp.lt b70 b14))
(assert (fp.lt b17 b41))
(assert (fp.lt b70 b17))
(assert (fp.lt b20 b41))
(assert (fp.lt b70 b20))
(assert (fp.lt b23 b41))
(assert (fp.lt b70 b23))
(assert (fp.lt b26 b41))
(assert (fp.lt b70 b26))
(assert (fp.lt b29 b41))
(assert (fp.lt b70 b29))
(assert (fp.lt b32 b41))
(assert (fp.lt b70 b32))
(assert (fp.lt b35 b41))
(assert (fp.lt b70 b35))
(assert (fp.lt b38 b41))
(assert (fp.lt b70 b38))
; End constraints
(check-sat)
